(set-info :smt-lib-version 2.6)
(set-logic QF_DT)
(set-info :source |
Generated by: Federico Mora
Generated on: 2023-07-20
Generator: z3 Python bindings via UCLID5 Python API
Application: Blocksworld Automated Reasoning Problems.
Target solvers: Algaroba, cvc5, Z3, Princess
Publications: Shah, Mora and Seshia. An Eager Satisfiability Modulo Theories Solver for Algebraic Datatypes. AAAI ’24 |)
(set-info :license "https://creativecommons.org/licenses/by/4.0/")
(set-info :category "industrial")
(set-info :status unsat) 
(declare-datatypes ((Enum_A_B_C_D_E_F_G_H_I_J_K_L_M_N_O_P_Q 0)) (((A) (B) (C) (D) (E) (F) (G) (H) (I) (J) (K) (L) (M) (N) (O) (P) (Q))))
(declare-datatypes ((Tower 0)) (((stack (top Enum_A_B_C_D_E_F_G_H_I_J_K_L_M_N_O_P_Q) (rest Tower)) (empty))))
(declare-datatypes ((Record_left_center_right 0)) (((Record_left_center_right (left Tower) (center Tower) (right Tower)))))
(declare-datatypes ((Enum_left-to-center_left-to-right_center-to-left_center-to-right_right-to-left_right-to-center 0)) (((left-to-center) (left-to-right) (center-to-left) (center-to-right) (right-to-left) (right-to-center))))
(declare-fun s () Record_left_center_right)
(declare-fun s_tmp () Record_left_center_right)
(declare-fun c () Enum_left-to-center_left-to-right_center-to-left_center-to-right_right-to-left_right-to-center)
(declare-fun c_tmp () Enum_left-to-center_left-to-right_center-to-left_center-to-right_right-to-left_right-to-center)
(declare-fun s_tmp_ () Record_left_center_right)
(declare-fun s_tmp__ () Record_left_center_right)
(declare-fun s_tmp___ () Record_left_center_right)
(declare-fun c!0 () Enum_left-to-center_left-to-right_center-to-left_center-to-right_right-to-left_right-to-center)
(declare-fun c_tmp____ () Enum_left-to-center_left-to-right_center-to-left_center-to-right_right-to-left_right-to-center)
(declare-fun s_ () Record_left_center_right)
(declare-fun c_ () Enum_left-to-center_left-to-right_center-to-left_center-to-right_right-to-left_right-to-center)
(declare-fun c!1 () Enum_left-to-center_left-to-right_center-to-left_center-to-right_right-to-left_right-to-center)
(declare-fun c__ () Enum_left-to-center_left-to-right_center-to-left_center-to-right_right-to-left_right-to-center)
(declare-fun s__ () Record_left_center_right)
(declare-fun c!2 () Enum_left-to-center_left-to-right_center-to-left_center-to-right_right-to-left_right-to-center)
(declare-fun c___ () Enum_left-to-center_left-to-right_center-to-left_center-to-right_right-to-left_right-to-center)
(declare-fun s___ () Record_left_center_right)
(declare-fun c!3 () Enum_left-to-center_left-to-right_center-to-left_center-to-right_right-to-left_right-to-center)
(declare-fun c____ () Enum_left-to-center_left-to-right_center-to-left_center-to-right_right-to-left_right-to-center)
(declare-fun s____ () Record_left_center_right)
(declare-fun c!4 () Enum_left-to-center_left-to-right_center-to-left_center-to-right_right-to-left_right-to-center)
(declare-fun c_____ () Enum_left-to-center_left-to-right_center-to-left_center-to-right_right-to-left_right-to-center)
(declare-fun s_____ () Record_left_center_right)
(declare-fun c!5 () Enum_left-to-center_left-to-right_center-to-left_center-to-right_right-to-left_right-to-center)
(declare-fun c______ () Enum_left-to-center_left-to-right_center-to-left_center-to-right_right-to-left_right-to-center)
(declare-fun s______ () Record_left_center_right)
(declare-fun c!6 () Enum_left-to-center_left-to-right_center-to-left_center-to-right_right-to-left_right-to-center)
(declare-fun c_______ () Enum_left-to-center_left-to-right_center-to-left_center-to-right_right-to-left_right-to-center)
(declare-fun s_______ () Record_left_center_right)
(declare-fun c!7 () Enum_left-to-center_left-to-right_center-to-left_center-to-right_right-to-left_right-to-center)
(declare-fun c________ () Enum_left-to-center_left-to-right_center-to-left_center-to-right_right-to-left_right-to-center)
(declare-fun s________ () Record_left_center_right)
(declare-fun c!8 () Enum_left-to-center_left-to-right_center-to-left_center-to-right_right-to-left_right-to-center)
(declare-fun c_________ () Enum_left-to-center_left-to-right_center-to-left_center-to-right_right-to-left_right-to-center)
(declare-fun s_________ () Record_left_center_right)
(assert
 (= s_tmp s))
(assert
 (= c_tmp c))
(assert
 (let ((?x29 (stack N empty)))
 (let ((?x30 (stack B ?x29)))
 (let ((?x31 (stack C ?x30)))
 (let ((?x32 (stack L ?x31)))
 (let ((?x33 (stack Q ?x32)))
 (let ((?x109 (left s_tmp_)))
 (= ?x109 ?x33))))))))
(assert
 (let ((?x34 (stack H empty)))
 (let ((?x35 (stack O ?x34)))
 (let ((?x36 (stack K ?x35)))
 (let ((?x37 (stack I ?x36)))
 (let ((?x38 (stack F ?x37)))
 (let ((?x39 (stack J ?x38)))
 (let ((?x40 (stack M ?x39)))
 (let ((?x41 (stack E ?x40)))
 (let ((?x42 (stack P ?x41)))
 (let ((?x112 (center s_tmp__)))
 (= ?x112 ?x42))))))))))))
(assert
 (let ((?x43 (stack A empty)))
 (let ((?x44 (stack D ?x43)))
 (let ((?x45 (stack G ?x44)))
 (let ((?x115 (right s_tmp___)))
 (= ?x115 ?x45))))))
(assert
 (= c_tmp____ c!0))
(assert
 (= s_ s_tmp___))
(assert
 (= c_ c_tmp____))
(assert
 (let ((?x142 (left s_tmp__)))
 (= (left s_tmp___) ?x142)))
(assert
 (let ((?x112 (center s_tmp__)))
 (= (center s_tmp___) ?x112)))
(assert
 (let ((?x146 (center s_tmp_)))
 (= ?x146 (center s_tmp))))
(assert
 (let ((?x149 (right s_tmp_)))
 (= ?x149 (right s_tmp))))
(assert
 (let ((?x109 (left s_tmp_)))
 (let ((?x142 (left s_tmp__)))
 (= ?x142 ?x109))))
(assert
 (let ((?x149 (right s_tmp_)))
 (let ((?x153 (right s_tmp__)))
 (= ?x153 ?x149))))
(assert
 (= c__ c!1))
(assert
 (let ((?x86 (left s_)))
 (let ((?x269 (left s__)))
 (let (($x293 (= ?x269 ?x86)))
 (let ((?x89 (right s_)))
 (let (($x257 ((_ is stack ) ?x89)))
 (let (($x272 (= c_ right-to-left)))
 (let (($x246 (and $x272 $x257)))
 (let ((?x91 (center s_)))
 (let (($x247 ((_ is stack ) ?x91)))
 (let (($x248 (= c_ center-to-right)))
 (let (($x264 (and $x248 $x247)))
 (let (($x265 (= c_ center-to-left)))
 (let (($x266 (and $x265 $x247)))
 (let (($x302 (ite $x266 (= ?x269 (stack (top ?x91) ?x86)) (ite $x264 $x293 (ite $x246 (= ?x269 (stack (top ?x89) ?x86)) $x293)))))
 (let (($x280 (= ?x269 (rest ?x86))))
 (let (($x273 ((_ is stack ) ?x86)))
 (let (($x274 (= c_ left-to-right)))
 (let (($x275 (and $x274 $x273)))
 (let (($x276 (= c_ left-to-center)))
 (let (($x277 (and $x276 $x273)))
 (ite $x277 $x280 (ite $x275 $x280 $x302)))))))))))))))))))))))
(assert
 (let ((?x89 (right s_)))
 (let ((?x262 (right s__)))
 (let (($x289 (= ?x262 ?x89)))
 (let (($x286 (= ?x262 (rest ?x89))))
 (let (($x257 ((_ is stack ) ?x89)))
 (let (($x270 (= c_ right-to-center)))
 (let (($x271 (and $x270 $x257)))
 (let (($x272 (= c_ right-to-left)))
 (let (($x246 (and $x272 $x257)))
 (let ((?x91 (center s_)))
 (let (($x247 ((_ is stack ) ?x91)))
 (let (($x248 (= c_ center-to-right)))
 (let (($x264 (and $x248 $x247)))
 (let (($x299 (ite $x264 (= ?x262 (stack (top ?x91) ?x89)) (ite $x246 $x286 (ite $x271 $x286 $x289)))))
 (let (($x265 (= c_ center-to-left)))
 (let (($x266 (and $x265 $x247)))
 (let ((?x86 (left s_)))
 (let (($x273 ((_ is stack ) ?x86)))
 (let (($x274 (= c_ left-to-right)))
 (let (($x275 (and $x274 $x273)))
 (let (($x276 (= c_ left-to-center)))
 (let (($x277 (and $x276 $x273)))
 (ite $x277 (= ?x262 (stack (top ?x86) ?x89)) (ite $x275 $x289 (ite $x266 $x289 $x299))))))))))))))))))))))))))
(assert
 (let ((?x91 (center s_)))
 (let ((?x250 (center s__)))
 (let (($x291 (= ?x250 ?x91)))
 (let ((?x89 (right s_)))
 (let (($x257 ((_ is stack ) ?x89)))
 (let (($x270 (= c_ right-to-center)))
 (let (($x271 (and $x270 $x257)))
 (let (($x272 (= c_ right-to-left)))
 (let (($x246 (and $x272 $x257)))
 (let (($x283 (= ?x250 (rest ?x91))))
 (let (($x247 ((_ is stack ) ?x91)))
 (let (($x248 (= c_ center-to-right)))
 (let (($x264 (and $x248 $x247)))
 (let (($x298 (ite $x264 $x283 (ite $x246 $x291 (ite $x271 (= ?x250 (stack (top ?x89) ?x91)) $x291)))))
 (let (($x265 (= c_ center-to-left)))
 (let (($x266 (and $x265 $x247)))
 (let ((?x86 (left s_)))
 (let (($x273 ((_ is stack ) ?x86)))
 (let (($x274 (= c_ left-to-right)))
 (let (($x275 (and $x274 $x273)))
 (let (($x276 (= c_ left-to-center)))
 (let (($x277 (and $x276 $x273)))
 (ite $x277 $x291 (ite $x275 (= ?x250 (stack (top ?x86) ?x91)) (ite $x266 $x283 $x298))))))))))))))))))))))))))
(assert
 (= c___ c!2))
(assert
 (let ((?x269 (left s__)))
 (let ((?x156 (left s___)))
 (let (($x422 (= ?x156 ?x269)))
 (let ((?x262 (right s__)))
 (let ((?x389 (top ?x262)))
 (let ((?x390 (stack ?x389 ?x269)))
 (let (($x416 (= ?x156 ?x390)))
 (let (($x392 ((_ is stack ) ?x262)))
 (let (($x395 (= c__ right-to-left)))
 (let (($x396 (and $x395 $x392)))
 (let ((?x250 (center s__)))
 (let (($x397 ((_ is stack ) ?x250)))
 (let (($x398 (= c__ center-to-right)))
 (let (($x399 (and $x398 $x397)))
 (let ((?x385 (top ?x250)))
 (let ((?x386 (stack ?x385 ?x269)))
 (let (($x413 (= ?x156 ?x386)))
 (let (($x400 (= c__ center-to-left)))
 (let (($x401 (and $x400 $x397)))
 (let ((?x158 (rest ?x269)))
 (let (($x409 (= ?x156 ?x158)))
 (let (($x402 ((_ is stack ) ?x269)))
 (let (($x403 (= c__ left-to-right)))
 (let (($x404 (and $x403 $x402)))
 (let (($x405 (= c__ left-to-center)))
 (let (($x406 (and $x405 $x402)))
 (ite $x406 $x409 (ite $x404 $x409 (ite $x401 $x413 (ite $x399 $x422 (ite $x396 $x416 $x422))))))))))))))))))))))))))))))))
(assert
 (let ((?x262 (right s__)))
 (let ((?x159 (right s___)))
 (let (($x418 (= ?x159 ?x262)))
 (let ((?x388 (rest ?x262)))
 (let (($x415 (= ?x159 ?x388)))
 (let (($x392 ((_ is stack ) ?x262)))
 (let (($x393 (= c__ right-to-center)))
 (let (($x394 (and $x393 $x392)))
 (let (($x395 (= c__ right-to-left)))
 (let (($x396 (and $x395 $x392)))
 (let ((?x250 (center s__)))
 (let ((?x385 (top ?x250)))
 (let ((?x387 (stack ?x385 ?x262)))
 (let (($x414 (= ?x159 ?x387)))
 (let (($x397 ((_ is stack ) ?x250)))
 (let (($x398 (= c__ center-to-right)))
 (let (($x399 (and $x398 $x397)))
 (let (($x400 (= c__ center-to-left)))
 (let (($x401 (and $x400 $x397)))
 (let ((?x269 (left s__)))
 (let (($x402 ((_ is stack ) ?x269)))
 (let (($x403 (= c__ left-to-right)))
 (let (($x404 (and $x403 $x402)))
 (let (($x435 (ite $x404 $x418 (ite $x401 $x418 (ite $x399 $x414 (ite $x396 $x415 (ite $x394 $x415 $x418)))))))
 (let ((?x245 (top ?x269)))
 (let ((?x381 (stack ?x245 ?x262)))
 (let (($x410 (= ?x159 ?x381)))
 (let (($x405 (= c__ left-to-center)))
 (let (($x406 (and $x405 $x402)))
 (ite $x406 $x410 $x435)))))))))))))))))))))))))))))))
(assert
 (let ((?x250 (center s__)))
 (let ((?x382 (center s___)))
 (let (($x420 (= ?x382 ?x250)))
 (let ((?x262 (right s__)))
 (let ((?x389 (top ?x262)))
 (let ((?x391 (stack ?x389 ?x250)))
 (let (($x417 (= ?x382 ?x391)))
 (let (($x392 ((_ is stack ) ?x262)))
 (let (($x393 (= c__ right-to-center)))
 (let (($x394 (and $x393 $x392)))
 (let (($x395 (= c__ right-to-left)))
 (let (($x396 (and $x395 $x392)))
 (let ((?x384 (rest ?x250)))
 (let (($x412 (= ?x382 ?x384)))
 (let (($x397 ((_ is stack ) ?x250)))
 (let (($x398 (= c__ center-to-right)))
 (let (($x399 (and $x398 $x397)))
 (let (($x400 (= c__ center-to-left)))
 (let (($x401 (and $x400 $x397)))
 (let ((?x269 (left s__)))
 (let ((?x245 (top ?x269)))
 (let ((?x383 (stack ?x245 ?x250)))
 (let (($x411 (= ?x382 ?x383)))
 (let (($x402 ((_ is stack ) ?x269)))
 (let (($x403 (= c__ left-to-right)))
 (let (($x404 (and $x403 $x402)))
 (let (($x434 (ite $x404 $x411 (ite $x401 $x412 (ite $x399 $x412 (ite $x396 $x420 (ite $x394 $x417 $x420)))))))
 (let (($x405 (= c__ left-to-center)))
 (let (($x406 (and $x405 $x402)))
 (ite $x406 $x420 $x434)))))))))))))))))))))))))))))))
(assert
 (= c____ c!3))
(assert
 (let ((?x156 (left s___)))
 (let ((?x309 (left s____)))
 (let (($x560 (= ?x309 ?x156)))
 (let ((?x159 (right s___)))
 (let ((?x527 (top ?x159)))
 (let ((?x528 (stack ?x527 ?x156)))
 (let (($x554 (= ?x309 ?x528)))
 (let (($x530 ((_ is stack ) ?x159)))
 (let (($x533 (= c___ right-to-left)))
 (let (($x534 (and $x533 $x530)))
 (let ((?x382 (center s___)))
 (let (($x535 ((_ is stack ) ?x382)))
 (let (($x536 (= c___ center-to-right)))
 (let (($x537 (and $x536 $x535)))
 (let ((?x523 (top ?x382)))
 (let ((?x524 (stack ?x523 ?x156)))
 (let (($x551 (= ?x309 ?x524)))
 (let (($x538 (= c___ center-to-left)))
 (let (($x539 (and $x538 $x535)))
 (let ((?x353 (rest ?x156)))
 (let (($x547 (= ?x309 ?x353)))
 (let (($x540 ((_ is stack ) ?x156)))
 (let (($x541 (= c___ left-to-right)))
 (let (($x542 (and $x541 $x540)))
 (let (($x543 (= c___ left-to-center)))
 (let (($x544 (and $x543 $x540)))
 (ite $x544 $x547 (ite $x542 $x547 (ite $x539 $x551 (ite $x537 $x560 (ite $x534 $x554 $x560))))))))))))))))))))))))))))))))
(assert
 (let ((?x159 (right s___)))
 (let ((?x354 (right s____)))
 (let (($x556 (= ?x354 ?x159)))
 (let ((?x526 (rest ?x159)))
 (let (($x553 (= ?x354 ?x526)))
 (let (($x530 ((_ is stack ) ?x159)))
 (let (($x531 (= c___ right-to-center)))
 (let (($x532 (and $x531 $x530)))
 (let (($x533 (= c___ right-to-left)))
 (let (($x534 (and $x533 $x530)))
 (let ((?x382 (center s___)))
 (let ((?x523 (top ?x382)))
 (let ((?x525 (stack ?x523 ?x159)))
 (let (($x552 (= ?x354 ?x525)))
 (let (($x535 ((_ is stack ) ?x382)))
 (let (($x536 (= c___ center-to-right)))
 (let (($x537 (and $x536 $x535)))
 (let (($x538 (= c___ center-to-left)))
 (let (($x539 (and $x538 $x535)))
 (let ((?x156 (left s___)))
 (let (($x540 ((_ is stack ) ?x156)))
 (let (($x541 (= c___ left-to-right)))
 (let (($x542 (and $x541 $x540)))
 (let (($x573 (ite $x542 $x556 (ite $x539 $x556 (ite $x537 $x552 (ite $x534 $x553 (ite $x532 $x553 $x556)))))))
 (let ((?x380 (top ?x156)))
 (let ((?x519 (stack ?x380 ?x159)))
 (let (($x548 (= ?x354 ?x519)))
 (let (($x543 (= c___ left-to-center)))
 (let (($x544 (and $x543 $x540)))
 (ite $x544 $x548 $x573)))))))))))))))))))))))))))))))
(assert
 (let ((?x382 (center s___)))
 (let ((?x520 (center s____)))
 (let (($x558 (= ?x520 ?x382)))
 (let ((?x159 (right s___)))
 (let ((?x527 (top ?x159)))
 (let ((?x529 (stack ?x527 ?x382)))
 (let (($x555 (= ?x520 ?x529)))
 (let (($x530 ((_ is stack ) ?x159)))
 (let (($x531 (= c___ right-to-center)))
 (let (($x532 (and $x531 $x530)))
 (let (($x533 (= c___ right-to-left)))
 (let (($x534 (and $x533 $x530)))
 (let ((?x522 (rest ?x382)))
 (let (($x550 (= ?x520 ?x522)))
 (let (($x535 ((_ is stack ) ?x382)))
 (let (($x536 (= c___ center-to-right)))
 (let (($x537 (and $x536 $x535)))
 (let (($x538 (= c___ center-to-left)))
 (let (($x539 (and $x538 $x535)))
 (let ((?x156 (left s___)))
 (let ((?x380 (top ?x156)))
 (let ((?x521 (stack ?x380 ?x382)))
 (let (($x549 (= ?x520 ?x521)))
 (let (($x540 ((_ is stack ) ?x156)))
 (let (($x541 (= c___ left-to-right)))
 (let (($x542 (and $x541 $x540)))
 (let (($x572 (ite $x542 $x549 (ite $x539 $x550 (ite $x537 $x550 (ite $x534 $x558 (ite $x532 $x555 $x558)))))))
 (let (($x543 (= c___ left-to-center)))
 (let (($x544 (and $x543 $x540)))
 (ite $x544 $x558 $x572)))))))))))))))))))))))))))))))
(assert
 (= c_____ c!4))
(assert
 (let ((?x309 (left s____)))
 (let ((?x438 (left s_____)))
 (let (($x698 (= ?x438 ?x309)))
 (let ((?x354 (right s____)))
 (let ((?x665 (top ?x354)))
 (let ((?x666 (stack ?x665 ?x309)))
 (let (($x692 (= ?x438 ?x666)))
 (let (($x668 ((_ is stack ) ?x354)))
 (let (($x671 (= c____ right-to-left)))
 (let (($x672 (and $x671 $x668)))
 (let ((?x520 (center s____)))
 (let (($x673 ((_ is stack ) ?x520)))
 (let (($x674 (= c____ center-to-right)))
 (let (($x675 (and $x674 $x673)))
 (let ((?x661 (top ?x520)))
 (let ((?x662 (stack ?x661 ?x309)))
 (let (($x689 (= ?x438 ?x662)))
 (let (($x676 (= c____ center-to-left)))
 (let (($x677 (and $x676 $x673)))
 (let ((?x471 (rest ?x309)))
 (let (($x685 (= ?x438 ?x471)))
 (let (($x678 ((_ is stack ) ?x309)))
 (let (($x679 (= c____ left-to-right)))
 (let (($x680 (and $x679 $x678)))
 (let (($x681 (= c____ left-to-center)))
 (let (($x682 (and $x681 $x678)))
 (ite $x682 $x685 (ite $x680 $x685 (ite $x677 $x689 (ite $x675 $x698 (ite $x672 $x692 $x698))))))))))))))))))))))))))))))))
(assert
 (let ((?x354 (right s____)))
 (let ((?x472 (right s_____)))
 (let (($x694 (= ?x472 ?x354)))
 (let ((?x664 (rest ?x354)))
 (let (($x691 (= ?x472 ?x664)))
 (let (($x668 ((_ is stack ) ?x354)))
 (let (($x669 (= c____ right-to-center)))
 (let (($x670 (and $x669 $x668)))
 (let (($x671 (= c____ right-to-left)))
 (let (($x672 (and $x671 $x668)))
 (let ((?x520 (center s____)))
 (let ((?x661 (top ?x520)))
 (let ((?x663 (stack ?x661 ?x354)))
 (let (($x690 (= ?x472 ?x663)))
 (let (($x673 ((_ is stack ) ?x520)))
 (let (($x674 (= c____ center-to-right)))
 (let (($x675 (and $x674 $x673)))
 (let (($x676 (= c____ center-to-left)))
 (let (($x677 (and $x676 $x673)))
 (let ((?x309 (left s____)))
 (let (($x678 ((_ is stack ) ?x309)))
 (let (($x679 (= c____ left-to-right)))
 (let (($x680 (and $x679 $x678)))
 (let (($x711 (ite $x680 $x694 (ite $x677 $x694 (ite $x675 $x690 (ite $x672 $x691 (ite $x670 $x691 $x694)))))))
 (let ((?x518 (top ?x309)))
 (let ((?x657 (stack ?x518 ?x354)))
 (let (($x686 (= ?x472 ?x657)))
 (let (($x681 (= c____ left-to-center)))
 (let (($x682 (and $x681 $x678)))
 (ite $x682 $x686 $x711)))))))))))))))))))))))))))))))
(assert
 (let ((?x520 (center s____)))
 (let ((?x658 (center s_____)))
 (let (($x696 (= ?x658 ?x520)))
 (let ((?x354 (right s____)))
 (let ((?x665 (top ?x354)))
 (let ((?x667 (stack ?x665 ?x520)))
 (let (($x693 (= ?x658 ?x667)))
 (let (($x668 ((_ is stack ) ?x354)))
 (let (($x669 (= c____ right-to-center)))
 (let (($x670 (and $x669 $x668)))
 (let (($x671 (= c____ right-to-left)))
 (let (($x672 (and $x671 $x668)))
 (let ((?x660 (rest ?x520)))
 (let (($x688 (= ?x658 ?x660)))
 (let (($x673 ((_ is stack ) ?x520)))
 (let (($x674 (= c____ center-to-right)))
 (let (($x675 (and $x674 $x673)))
 (let (($x676 (= c____ center-to-left)))
 (let (($x677 (and $x676 $x673)))
 (let ((?x309 (left s____)))
 (let ((?x518 (top ?x309)))
 (let ((?x659 (stack ?x518 ?x520)))
 (let (($x687 (= ?x658 ?x659)))
 (let (($x678 ((_ is stack ) ?x309)))
 (let (($x679 (= c____ left-to-right)))
 (let (($x680 (and $x679 $x678)))
 (let (($x710 (ite $x680 $x687 (ite $x677 $x688 (ite $x675 $x688 (ite $x672 $x696 (ite $x670 $x693 $x696)))))))
 (let (($x681 (= c____ left-to-center)))
 (let (($x682 (and $x681 $x678)))
 (ite $x682 $x696 $x710)))))))))))))))))))))))))))))))
(assert
 (= c______ c!5))
(assert
 (let ((?x438 (left s_____)))
 (let ((?x576 (left s______)))
 (let (($x836 (= ?x576 ?x438)))
 (let ((?x472 (right s_____)))
 (let ((?x803 (top ?x472)))
 (let ((?x804 (stack ?x803 ?x438)))
 (let (($x830 (= ?x576 ?x804)))
 (let (($x806 ((_ is stack ) ?x472)))
 (let (($x809 (= c_____ right-to-left)))
 (let (($x810 (and $x809 $x806)))
 (let ((?x658 (center s_____)))
 (let (($x811 ((_ is stack ) ?x658)))
 (let (($x812 (= c_____ center-to-right)))
 (let (($x813 (and $x812 $x811)))
 (let ((?x799 (top ?x658)))
 (let ((?x800 (stack ?x799 ?x438)))
 (let (($x827 (= ?x576 ?x800)))
 (let (($x814 (= c_____ center-to-left)))
 (let (($x815 (and $x814 $x811)))
 (let ((?x609 (rest ?x438)))
 (let (($x823 (= ?x576 ?x609)))
 (let (($x816 ((_ is stack ) ?x438)))
 (let (($x817 (= c_____ left-to-right)))
 (let (($x818 (and $x817 $x816)))
 (let (($x819 (= c_____ left-to-center)))
 (let (($x820 (and $x819 $x816)))
 (ite $x820 $x823 (ite $x818 $x823 (ite $x815 $x827 (ite $x813 $x836 (ite $x810 $x830 $x836))))))))))))))))))))))))))))))))
(assert
 (let ((?x472 (right s_____)))
 (let ((?x610 (right s______)))
 (let (($x832 (= ?x610 ?x472)))
 (let ((?x802 (rest ?x472)))
 (let (($x829 (= ?x610 ?x802)))
 (let (($x806 ((_ is stack ) ?x472)))
 (let (($x807 (= c_____ right-to-center)))
 (let (($x808 (and $x807 $x806)))
 (let (($x809 (= c_____ right-to-left)))
 (let (($x810 (and $x809 $x806)))
 (let ((?x658 (center s_____)))
 (let ((?x799 (top ?x658)))
 (let ((?x801 (stack ?x799 ?x472)))
 (let (($x828 (= ?x610 ?x801)))
 (let (($x811 ((_ is stack ) ?x658)))
 (let (($x812 (= c_____ center-to-right)))
 (let (($x813 (and $x812 $x811)))
 (let (($x814 (= c_____ center-to-left)))
 (let (($x815 (and $x814 $x811)))
 (let ((?x438 (left s_____)))
 (let (($x816 ((_ is stack ) ?x438)))
 (let (($x817 (= c_____ left-to-right)))
 (let (($x818 (and $x817 $x816)))
 (let (($x849 (ite $x818 $x832 (ite $x815 $x832 (ite $x813 $x828 (ite $x810 $x829 (ite $x808 $x829 $x832)))))))
 (let ((?x656 (top ?x438)))
 (let ((?x795 (stack ?x656 ?x472)))
 (let (($x824 (= ?x610 ?x795)))
 (let (($x819 (= c_____ left-to-center)))
 (let (($x820 (and $x819 $x816)))
 (ite $x820 $x824 $x849)))))))))))))))))))))))))))))))
(assert
 (let ((?x658 (center s_____)))
 (let ((?x796 (center s______)))
 (let (($x834 (= ?x796 ?x658)))
 (let ((?x472 (right s_____)))
 (let ((?x803 (top ?x472)))
 (let ((?x805 (stack ?x803 ?x658)))
 (let (($x831 (= ?x796 ?x805)))
 (let (($x806 ((_ is stack ) ?x472)))
 (let (($x807 (= c_____ right-to-center)))
 (let (($x808 (and $x807 $x806)))
 (let (($x809 (= c_____ right-to-left)))
 (let (($x810 (and $x809 $x806)))
 (let ((?x798 (rest ?x658)))
 (let (($x826 (= ?x796 ?x798)))
 (let (($x811 ((_ is stack ) ?x658)))
 (let (($x812 (= c_____ center-to-right)))
 (let (($x813 (and $x812 $x811)))
 (let (($x814 (= c_____ center-to-left)))
 (let (($x815 (and $x814 $x811)))
 (let ((?x438 (left s_____)))
 (let ((?x656 (top ?x438)))
 (let ((?x797 (stack ?x656 ?x658)))
 (let (($x825 (= ?x796 ?x797)))
 (let (($x816 ((_ is stack ) ?x438)))
 (let (($x817 (= c_____ left-to-right)))
 (let (($x818 (and $x817 $x816)))
 (let (($x848 (ite $x818 $x825 (ite $x815 $x826 (ite $x813 $x826 (ite $x810 $x834 (ite $x808 $x831 $x834)))))))
 (let (($x819 (= c_____ left-to-center)))
 (let (($x820 (and $x819 $x816)))
 (ite $x820 $x834 $x848)))))))))))))))))))))))))))))))
(assert
 (= c_______ c!6))
(assert
 (let ((?x576 (left s______)))
 (let ((?x714 (left s_______)))
 (let (($x974 (= ?x714 ?x576)))
 (let ((?x610 (right s______)))
 (let ((?x941 (top ?x610)))
 (let ((?x942 (stack ?x941 ?x576)))
 (let (($x968 (= ?x714 ?x942)))
 (let (($x944 ((_ is stack ) ?x610)))
 (let (($x947 (= c______ right-to-left)))
 (let (($x948 (and $x947 $x944)))
 (let ((?x796 (center s______)))
 (let (($x949 ((_ is stack ) ?x796)))
 (let (($x950 (= c______ center-to-right)))
 (let (($x951 (and $x950 $x949)))
 (let ((?x937 (top ?x796)))
 (let ((?x938 (stack ?x937 ?x576)))
 (let (($x965 (= ?x714 ?x938)))
 (let (($x952 (= c______ center-to-left)))
 (let (($x953 (and $x952 $x949)))
 (let ((?x747 (rest ?x576)))
 (let (($x961 (= ?x714 ?x747)))
 (let (($x954 ((_ is stack ) ?x576)))
 (let (($x955 (= c______ left-to-right)))
 (let (($x956 (and $x955 $x954)))
 (let (($x957 (= c______ left-to-center)))
 (let (($x958 (and $x957 $x954)))
 (ite $x958 $x961 (ite $x956 $x961 (ite $x953 $x965 (ite $x951 $x974 (ite $x948 $x968 $x974))))))))))))))))))))))))))))))))
(assert
 (let ((?x610 (right s______)))
 (let ((?x748 (right s_______)))
 (let (($x970 (= ?x748 ?x610)))
 (let ((?x940 (rest ?x610)))
 (let (($x967 (= ?x748 ?x940)))
 (let (($x944 ((_ is stack ) ?x610)))
 (let (($x945 (= c______ right-to-center)))
 (let (($x946 (and $x945 $x944)))
 (let (($x947 (= c______ right-to-left)))
 (let (($x948 (and $x947 $x944)))
 (let ((?x796 (center s______)))
 (let ((?x937 (top ?x796)))
 (let ((?x939 (stack ?x937 ?x610)))
 (let (($x966 (= ?x748 ?x939)))
 (let (($x949 ((_ is stack ) ?x796)))
 (let (($x950 (= c______ center-to-right)))
 (let (($x951 (and $x950 $x949)))
 (let (($x952 (= c______ center-to-left)))
 (let (($x953 (and $x952 $x949)))
 (let ((?x576 (left s______)))
 (let (($x954 ((_ is stack ) ?x576)))
 (let (($x955 (= c______ left-to-right)))
 (let (($x956 (and $x955 $x954)))
 (let (($x987 (ite $x956 $x970 (ite $x953 $x970 (ite $x951 $x966 (ite $x948 $x967 (ite $x946 $x967 $x970)))))))
 (let ((?x794 (top ?x576)))
 (let ((?x933 (stack ?x794 ?x610)))
 (let (($x962 (= ?x748 ?x933)))
 (let (($x957 (= c______ left-to-center)))
 (let (($x958 (and $x957 $x954)))
 (ite $x958 $x962 $x987)))))))))))))))))))))))))))))))
(assert
 (let ((?x796 (center s______)))
 (let ((?x934 (center s_______)))
 (let (($x972 (= ?x934 ?x796)))
 (let ((?x610 (right s______)))
 (let ((?x941 (top ?x610)))
 (let ((?x943 (stack ?x941 ?x796)))
 (let (($x969 (= ?x934 ?x943)))
 (let (($x944 ((_ is stack ) ?x610)))
 (let (($x945 (= c______ right-to-center)))
 (let (($x946 (and $x945 $x944)))
 (let (($x947 (= c______ right-to-left)))
 (let (($x948 (and $x947 $x944)))
 (let ((?x936 (rest ?x796)))
 (let (($x964 (= ?x934 ?x936)))
 (let (($x949 ((_ is stack ) ?x796)))
 (let (($x950 (= c______ center-to-right)))
 (let (($x951 (and $x950 $x949)))
 (let (($x952 (= c______ center-to-left)))
 (let (($x953 (and $x952 $x949)))
 (let ((?x576 (left s______)))
 (let ((?x794 (top ?x576)))
 (let ((?x935 (stack ?x794 ?x796)))
 (let (($x963 (= ?x934 ?x935)))
 (let (($x954 ((_ is stack ) ?x576)))
 (let (($x955 (= c______ left-to-right)))
 (let (($x956 (and $x955 $x954)))
 (let (($x986 (ite $x956 $x963 (ite $x953 $x964 (ite $x951 $x964 (ite $x948 $x972 (ite $x946 $x969 $x972)))))))
 (let (($x957 (= c______ left-to-center)))
 (let (($x958 (and $x957 $x954)))
 (ite $x958 $x972 $x986)))))))))))))))))))))))))))))))
(assert
 (= c________ c!7))
(assert
 (let ((?x714 (left s_______)))
 (let ((?x852 (left s________)))
 (let (($x1112 (= ?x852 ?x714)))
 (let ((?x748 (right s_______)))
 (let ((?x1079 (top ?x748)))
 (let ((?x1080 (stack ?x1079 ?x714)))
 (let (($x1106 (= ?x852 ?x1080)))
 (let (($x1082 ((_ is stack ) ?x748)))
 (let (($x1085 (= c_______ right-to-left)))
 (let (($x1086 (and $x1085 $x1082)))
 (let ((?x934 (center s_______)))
 (let (($x1087 ((_ is stack ) ?x934)))
 (let (($x1088 (= c_______ center-to-right)))
 (let (($x1089 (and $x1088 $x1087)))
 (let ((?x1075 (top ?x934)))
 (let ((?x1076 (stack ?x1075 ?x714)))
 (let (($x1103 (= ?x852 ?x1076)))
 (let (($x1090 (= c_______ center-to-left)))
 (let (($x1091 (and $x1090 $x1087)))
 (let ((?x885 (rest ?x714)))
 (let (($x1099 (= ?x852 ?x885)))
 (let (($x1092 ((_ is stack ) ?x714)))
 (let (($x1093 (= c_______ left-to-right)))
 (let (($x1094 (and $x1093 $x1092)))
 (let (($x1095 (= c_______ left-to-center)))
 (let (($x1096 (and $x1095 $x1092)))
 (ite $x1096 $x1099 (ite $x1094 $x1099 (ite $x1091 $x1103 (ite $x1089 $x1112 (ite $x1086 $x1106 $x1112))))))))))))))))))))))))))))))))
(assert
 (let ((?x748 (right s_______)))
 (let ((?x886 (right s________)))
 (let (($x1108 (= ?x886 ?x748)))
 (let ((?x1078 (rest ?x748)))
 (let (($x1105 (= ?x886 ?x1078)))
 (let (($x1082 ((_ is stack ) ?x748)))
 (let (($x1083 (= c_______ right-to-center)))
 (let (($x1084 (and $x1083 $x1082)))
 (let (($x1085 (= c_______ right-to-left)))
 (let (($x1086 (and $x1085 $x1082)))
 (let ((?x934 (center s_______)))
 (let ((?x1075 (top ?x934)))
 (let ((?x1077 (stack ?x1075 ?x748)))
 (let (($x1104 (= ?x886 ?x1077)))
 (let (($x1087 ((_ is stack ) ?x934)))
 (let (($x1088 (= c_______ center-to-right)))
 (let (($x1089 (and $x1088 $x1087)))
 (let (($x1090 (= c_______ center-to-left)))
 (let (($x1091 (and $x1090 $x1087)))
 (let ((?x714 (left s_______)))
 (let (($x1092 ((_ is stack ) ?x714)))
 (let (($x1093 (= c_______ left-to-right)))
 (let (($x1094 (and $x1093 $x1092)))
 (let (($x1125 (ite $x1094 $x1108 (ite $x1091 $x1108 (ite $x1089 $x1104 (ite $x1086 $x1105 (ite $x1084 $x1105 $x1108)))))))
 (let ((?x932 (top ?x714)))
 (let ((?x1071 (stack ?x932 ?x748)))
 (let (($x1100 (= ?x886 ?x1071)))
 (let (($x1095 (= c_______ left-to-center)))
 (let (($x1096 (and $x1095 $x1092)))
 (ite $x1096 $x1100 $x1125)))))))))))))))))))))))))))))))
(assert
 (let ((?x934 (center s_______)))
 (let ((?x1072 (center s________)))
 (let (($x1110 (= ?x1072 ?x934)))
 (let ((?x748 (right s_______)))
 (let ((?x1079 (top ?x748)))
 (let ((?x1081 (stack ?x1079 ?x934)))
 (let (($x1107 (= ?x1072 ?x1081)))
 (let (($x1082 ((_ is stack ) ?x748)))
 (let (($x1083 (= c_______ right-to-center)))
 (let (($x1084 (and $x1083 $x1082)))
 (let (($x1085 (= c_______ right-to-left)))
 (let (($x1086 (and $x1085 $x1082)))
 (let ((?x1074 (rest ?x934)))
 (let (($x1102 (= ?x1072 ?x1074)))
 (let (($x1087 ((_ is stack ) ?x934)))
 (let (($x1088 (= c_______ center-to-right)))
 (let (($x1089 (and $x1088 $x1087)))
 (let (($x1090 (= c_______ center-to-left)))
 (let (($x1091 (and $x1090 $x1087)))
 (let ((?x714 (left s_______)))
 (let ((?x932 (top ?x714)))
 (let ((?x1073 (stack ?x932 ?x934)))
 (let (($x1101 (= ?x1072 ?x1073)))
 (let (($x1092 ((_ is stack ) ?x714)))
 (let (($x1093 (= c_______ left-to-right)))
 (let (($x1094 (and $x1093 $x1092)))
 (let (($x1124 (ite $x1094 $x1101 (ite $x1091 $x1102 (ite $x1089 $x1102 (ite $x1086 $x1110 (ite $x1084 $x1107 $x1110)))))))
 (let (($x1095 (= c_______ left-to-center)))
 (let (($x1096 (and $x1095 $x1092)))
 (ite $x1096 $x1110 $x1124)))))))))))))))))))))))))))))))
(assert
 (= c_________ c!8))
(assert
 (let ((?x852 (left s________)))
 (let ((?x990 (left s_________)))
 (let (($x1250 (= ?x990 ?x852)))
 (let ((?x886 (right s________)))
 (let ((?x1217 (top ?x886)))
 (let ((?x1218 (stack ?x1217 ?x852)))
 (let (($x1244 (= ?x990 ?x1218)))
 (let (($x1220 ((_ is stack ) ?x886)))
 (let (($x1223 (= c________ right-to-left)))
 (let (($x1224 (and $x1223 $x1220)))
 (let ((?x1072 (center s________)))
 (let (($x1225 ((_ is stack ) ?x1072)))
 (let (($x1226 (= c________ center-to-right)))
 (let (($x1227 (and $x1226 $x1225)))
 (let ((?x1213 (top ?x1072)))
 (let ((?x1214 (stack ?x1213 ?x852)))
 (let (($x1241 (= ?x990 ?x1214)))
 (let (($x1228 (= c________ center-to-left)))
 (let (($x1229 (and $x1228 $x1225)))
 (let ((?x1023 (rest ?x852)))
 (let (($x1237 (= ?x990 ?x1023)))
 (let (($x1230 ((_ is stack ) ?x852)))
 (let (($x1231 (= c________ left-to-right)))
 (let (($x1232 (and $x1231 $x1230)))
 (let (($x1233 (= c________ left-to-center)))
 (let (($x1234 (and $x1233 $x1230)))
 (ite $x1234 $x1237 (ite $x1232 $x1237 (ite $x1229 $x1241 (ite $x1227 $x1250 (ite $x1224 $x1244 $x1250))))))))))))))))))))))))))))))))
(assert
 (let ((?x886 (right s________)))
 (let ((?x1024 (right s_________)))
 (let (($x1246 (= ?x1024 ?x886)))
 (let ((?x1216 (rest ?x886)))
 (let (($x1243 (= ?x1024 ?x1216)))
 (let (($x1220 ((_ is stack ) ?x886)))
 (let (($x1221 (= c________ right-to-center)))
 (let (($x1222 (and $x1221 $x1220)))
 (let (($x1223 (= c________ right-to-left)))
 (let (($x1224 (and $x1223 $x1220)))
 (let ((?x1072 (center s________)))
 (let ((?x1213 (top ?x1072)))
 (let ((?x1215 (stack ?x1213 ?x886)))
 (let (($x1242 (= ?x1024 ?x1215)))
 (let (($x1225 ((_ is stack ) ?x1072)))
 (let (($x1226 (= c________ center-to-right)))
 (let (($x1227 (and $x1226 $x1225)))
 (let (($x1228 (= c________ center-to-left)))
 (let (($x1229 (and $x1228 $x1225)))
 (let ((?x852 (left s________)))
 (let (($x1230 ((_ is stack ) ?x852)))
 (let (($x1231 (= c________ left-to-right)))
 (let (($x1232 (and $x1231 $x1230)))
 (let (($x1263 (ite $x1232 $x1246 (ite $x1229 $x1246 (ite $x1227 $x1242 (ite $x1224 $x1243 (ite $x1222 $x1243 $x1246)))))))
 (let ((?x1070 (top ?x852)))
 (let ((?x1209 (stack ?x1070 ?x886)))
 (let (($x1238 (= ?x1024 ?x1209)))
 (let (($x1233 (= c________ left-to-center)))
 (let (($x1234 (and $x1233 $x1230)))
 (ite $x1234 $x1238 $x1263)))))))))))))))))))))))))))))))
(assert
 (let ((?x1072 (center s________)))
 (let ((?x1210 (center s_________)))
 (let (($x1248 (= ?x1210 ?x1072)))
 (let ((?x886 (right s________)))
 (let ((?x1217 (top ?x886)))
 (let ((?x1219 (stack ?x1217 ?x1072)))
 (let (($x1245 (= ?x1210 ?x1219)))
 (let (($x1220 ((_ is stack ) ?x886)))
 (let (($x1221 (= c________ right-to-center)))
 (let (($x1222 (and $x1221 $x1220)))
 (let (($x1223 (= c________ right-to-left)))
 (let (($x1224 (and $x1223 $x1220)))
 (let ((?x1212 (rest ?x1072)))
 (let (($x1240 (= ?x1210 ?x1212)))
 (let (($x1225 ((_ is stack ) ?x1072)))
 (let (($x1226 (= c________ center-to-right)))
 (let (($x1227 (and $x1226 $x1225)))
 (let (($x1228 (= c________ center-to-left)))
 (let (($x1229 (and $x1228 $x1225)))
 (let ((?x852 (left s________)))
 (let ((?x1070 (top ?x852)))
 (let ((?x1211 (stack ?x1070 ?x1072)))
 (let (($x1239 (= ?x1210 ?x1211)))
 (let (($x1230 ((_ is stack ) ?x852)))
 (let (($x1231 (= c________ left-to-right)))
 (let (($x1232 (and $x1231 $x1230)))
 (let (($x1262 (ite $x1232 $x1239 (ite $x1229 $x1240 (ite $x1227 $x1240 (ite $x1224 $x1248 (ite $x1222 $x1245 $x1248)))))))
 (let (($x1233 (= c________ left-to-center)))
 (let (($x1234 (and $x1233 $x1230)))
 (ite $x1234 $x1248 $x1262)))))))))))))))))))))))))))))))
(assert
 (let ((?x62 (stack J (stack E (stack C empty)))))
 (let ((?x1024 (right s_________)))
 (let (($x1266 (= ?x1024 ?x62)))
 (let ((?x59 (stack K empty)))
 (let ((?x1210 (center s_________)))
 (let (($x1297 (= ?x1210 ?x59)))
 (let ((?x51 (stack O (stack I (stack G (stack A (stack P (stack L empty))))))))
 (let ((?x57 (stack N (stack H (stack M (stack Q (stack D (stack F ?x51))))))))
 (let ((?x58 (stack B ?x57)))
 (let ((?x990 (left s_________)))
 (let (($x1298 (= ?x990 ?x58)))
 (let (($x1300 (not (and $x1298 $x1297 $x1266))))
 (not $x1300))))))))))))))
(check-sat)
(exit)
